Route #1: 1 1 9 49 24 22 46 50 23 21 44 1 
Route #2: 1 20 10 38 15 47 45 25 30 1 
Route #3: 1 35 3 19 33 48 43 28 4 1 
Route #4: 1 36 40 16 2 18 26 1 
Route #5: 1 5 17 39 13 14 7 27 1 
Route #6: 1 34 29 42 11 6 1 
Route #7: 1 41 32 37 31 12 8 1 

Cost 1632.29
Time 0.3890


 * Another infos *

 Iterations: 51 Time: 0.3890 sec - 0.0065 min - 0.0001 horas
0.0000 h 0.0065 min
Problem dimension: 51
